decision_x1=[0,2];
decision_x2=[0,2];
decision_x3=[0,2];
decision_x4=[0,2];
decision_x5=[0,2];
decision_x6=[0,2];
decision_x7=[0,2];
decision_x8=[0,2];
decision_x9=[0,2];
decision_x10=[0,2];
decision_x11=[0,2];
decision_x12=[0,2];
decision_x13=[0,2];
decision_x14=[0,2];
decision_x15=[0,2];
decision_x16=[0,2];
decision_x17=[0,2];
decision_x18=[0,2];
decision_x19=[0,2];
decision_x20=[0,2];
decision_x21=[0,2];
decision_x22=[0,2];
decision_x23=[0,2];
decision_x24=[0,2];
decision_x25=[0,2];
decision_x26=[0,2];
decision_x27=[0,2];
decision_x28=[0,2];
decision_x29=[0,2];
decision_x30=[0,2];
random_y1=[0,2];
random_y2=[0,2];
random_y3=[0,2];
random_y4=[0,2];
random_y5=[0,2];
random_y6=[0,2];
constraint_x3_x1=[
0,0,2.4|
0,1,5|
0,2,2.2|
1,0,2.4|
1,1,0.058|
1,2,2.8|
2,0,8.9|
2,1,7.6|
2,2,6.5|
];
constraint_x4_x2=[
0,0,2.7|
0,1,4.2|
0,2,0.92|
1,0,7.2|
1,1,2.2|
1,2,7.5|
2,0,9|
2,1,7.6|
2,2,7.9|
];
constraint_x5_x1=[
0,0,5.9|
0,1,2.1|
0,2,5.2|
1,0,8.6|
1,1,9|
1,2,0.024|
2,0,7.6|
2,1,2.6|
2,2,4.7|
];
constraint_x5_x2=[
0,0,9.5|
0,1,3.6|
0,2,2.5|
1,0,9.5|
1,1,8.1|
1,2,6.3|
2,0,6.6|
2,1,6.3|
2,2,7.8|
];
constraint_x6_x2=[
0,0,7.1|
0,1,7.2|
0,2,9.7|
1,0,8|
1,1,2.6|
1,2,6.4|
2,0,9.4|
2,1,9.4|
2,2,8|
];
constraint_x6_x3=[
0,0,4.7|
0,1,6|
0,2,5.3|
1,0,6.3|
1,1,1|
1,2,8.9|
2,0,0.24|
2,1,6.4|
2,2,5.6|
];
constraint_x6_x4=[
0,0,5.8|
0,1,5.8|
0,2,9.2|
1,0,2.8|
1,1,1.3|
1,2,7.6|
2,0,4.9|
2,1,3.6|
2,2,9.8|
];
constraint_x6_x5=[
0,0,1.8|
0,1,9.6|
0,2,8.6|
1,0,9.3|
1,1,3.8|
1,2,1|
2,0,3.1|
2,1,0.93|
2,2,1.9|
];
constraint_x7_x3=[
0,0,5.1|
0,1,6.6|
0,2,8.9|
1,0,9.7|
1,1,5.2|
1,2,0.68|
2,0,7.3|
2,1,6.3|
2,2,6.6|
];
constraint_x7_x5=[
0,0,5.3|
0,1,8.8|
0,2,9.8|
1,0,7.6|
1,1,1.7|
1,2,1.7|
2,0,8.8|
2,1,5.1|
2,2,0.12|
];
constraint_x8_x1=[
0,0,7|
0,1,2.9|
0,2,9.4|
1,0,8.2|
1,1,3|
1,2,8.6|
2,0,7.6|
2,1,2.5|
2,2,7.2|
];
constraint_x8_x3=[
0,0,7|
0,1,3.4|
0,2,8|
1,0,2.7|
1,1,9.6|
1,2,4|
2,0,6.5|
2,1,8|
2,2,3.1|
];
constraint_x8_x7=[
0,0,9.3|
0,1,2.5|
0,2,4.2|
1,0,1.7|
1,1,1.8|
1,2,3.2|
2,0,4.3|
2,1,9.2|
2,2,4.7|
];
constraint_x9_x1=[
0,0,4|
0,1,9.9|
0,2,3.8|
1,0,0.67|
1,1,4.9|
1,2,5.8|
2,0,4.8|
2,1,1.1|
2,2,9.9|
];
constraint_x9_x3=[
0,0,6.3|
0,1,3|
0,2,3.4|
1,0,3|
1,1,5.4|
1,2,2.6|
2,0,6.3|
2,1,2.8|
2,2,3.1|
];
constraint_x9_x4=[
0,0,9.4|
0,1,3.2|
0,2,0.71|
1,0,3.1|
1,1,7|
1,2,9.9|
2,0,0.78|
2,1,7|
2,2,2.4|
];
constraint_x9_x6=[
0,0,0.85|
0,1,3.4|
0,2,9.4|
1,0,5.5|
1,1,0.23|
1,2,2.4|
2,0,5.5|
2,1,9.1|
2,2,4.1|
];
constraint_x9_x7=[
0,0,5.7|
0,1,3|
0,2,5.8|
1,0,2.3|
1,1,6.1|
1,2,5.9|
2,0,8.5|
2,1,8|
2,2,3.9|
];
constraint_x10_x2=[
0,0,2.6|
0,1,5.9|
0,2,4.2|
1,0,4.9|
1,1,5.7|
1,2,9.6|
2,0,6.6|
2,1,7.2|
2,2,0.4|
];
constraint_x10_x5=[
0,0,7.2|
0,1,7.3|
0,2,8.4|
1,0,5.1|
1,1,8.5|
1,2,8.1|
2,0,3.9|
2,1,5.6|
2,2,1.7|
];
constraint_x10_x7=[
0,0,0.74|
0,1,1.9|
0,2,1.3|
1,0,0.65|
1,1,7.1|
1,2,6.8|
2,0,8.8|
2,1,4.4|
2,2,5.9|
];
constraint_x11_x2=[
0,0,3.4|
0,1,7.7|
0,2,5.2|
1,0,6.1|
1,1,1|
1,2,3.6|
2,0,3.7|
2,1,2.8|
2,2,3.7|
];
constraint_x11_x3=[
0,0,1.1|
0,1,3.8|
0,2,3.5|
1,0,9.7|
1,1,5.8|
1,2,6.2|
2,0,9.4|
2,1,9|
2,2,7.3|
];
constraint_x11_x4=[
0,0,1.8|
0,1,3.8|
0,2,9.1|
1,0,1.7|
1,1,5.8|
1,2,4.5|
2,0,9.8|
2,1,6.6|
2,2,6|
];
constraint_x11_x9=[
0,0,7.1|
0,1,6.9|
0,2,6.1|
1,0,3.5|
1,1,7|
1,2,1.6|
2,0,0.047|
2,1,4.3|
2,2,6.2|
];
constraint_x11_x10=[
0,0,4.7|
0,1,5.3|
0,2,6.6|
1,0,3.2|
1,1,8.7|
1,2,6.2|
2,0,6.2|
2,1,2.9|
2,2,7.8|
];
constraint_x12_x2=[
0,0,3.3|
0,1,3.8|
0,2,7.3|
1,0,3|
1,1,7.7|
1,2,6.5|
2,0,8.4|
2,1,1|
2,2,7.6|
];
constraint_x12_x7=[
0,0,2.4|
0,1,9.2|
0,2,4|
1,0,4.6|
1,1,1.5|
1,2,7.8|
2,0,1.8|
2,1,7.3|
2,2,2.4|
];
constraint_x12_x8=[
0,0,7.9|
0,1,9.9|
0,2,9.7|
1,0,2.3|
1,1,7.1|
1,2,1.1|
2,0,8.8|
2,1,3.2|
2,2,1.5|
];
constraint_x12_x10=[
0,0,5.1|
0,1,0.82|
0,2,8.1|
1,0,8.3|
1,1,2|
1,2,3.8|
2,0,2|
2,1,2.8|
2,2,6.2|
];
constraint_x12_x11=[
0,0,2.3|
0,1,1.7|
0,2,4.2|
1,0,3.6|
1,1,0.55|
1,2,0.33|
2,0,6.2|
2,1,1.1|
2,2,6.7|
];
constraint_x13_x1=[
0,0,2.3|
0,1,9.1|
0,2,2|
1,0,8.2|
1,1,0.78|
1,2,0.32|
2,0,7.8|
2,1,8.2|
2,2,1.3|
];
constraint_x13_x2=[
0,0,3.8|
0,1,8.7|
0,2,4.5|
1,0,9|
1,1,3.2|
1,2,9.7|
2,0,9.1|
2,1,5.2|
2,2,3.3|
];
constraint_x13_x5=[
0,0,0.28|
0,1,4.9|
0,2,7.4|
1,0,7.6|
1,1,8.3|
1,2,1.5|
2,0,4.4|
2,1,3.1|
2,2,6|
];
constraint_x13_x6=[
0,0,8.7|
0,1,4.2|
0,2,3.2|
1,0,3.3|
1,1,9|
1,2,3.5|
2,0,4.2|
2,1,3.1|
2,2,9.8|
];
constraint_x13_x7=[
0,0,2.3|
0,1,6.9|
0,2,4.9|
1,0,8.9|
1,1,2.9|
1,2,3.8|
2,0,6.6|
2,1,0.78|
2,2,5.7|
];
constraint_x13_x10=[
0,0,2.1|
0,1,9|
0,2,8.3|
1,0,0.078|
1,1,9.3|
1,2,2.6|
2,0,3.8|
2,1,1.3|
2,2,7.6|
];
constraint_x14_x4=[
0,0,4.3|
0,1,1|
0,2,1.1|
1,0,1.3|
1,1,2.4|
1,2,2.2|
2,0,5.2|
2,1,0.31|
2,2,2.7|
];
constraint_x14_x5=[
0,0,3.4|
0,1,6.1|
0,2,8.8|
1,0,6.8|
1,1,8|
1,2,5.9|
2,0,3.1|
2,1,6.8|
2,2,4.4|
];
constraint_x14_x7=[
0,0,6.4|
0,1,5|
0,2,2.1|
1,0,8.6|
1,1,7.5|
1,2,7.9|
2,0,0.96|
2,1,7.1|
2,2,1.5|
];
constraint_x14_x9=[
0,0,0.068|
0,1,4|
0,2,3.7|
1,0,8.8|
1,1,8.2|
1,2,1.8|
2,0,1.5|
2,1,9.9|
2,2,5.7|
];
constraint_x14_x11=[
0,0,7.1|
0,1,1.4|
0,2,2.1|
1,0,9.4|
1,1,8.7|
1,2,7.7|
2,0,9|
2,1,4.9|
2,2,0.52|
];
constraint_x14_x12=[
0,0,9.1|
0,1,6.7|
0,2,1.9|
1,0,6.3|
1,1,8.1|
1,2,7.3|
2,0,5.6|
2,1,7.6|
2,2,5.9|
];
constraint_x15_x1=[
0,0,1.3|
0,1,9.1|
0,2,3.3|
1,0,7.8|
1,1,7|
1,2,1.5|
2,0,4.7|
2,1,2.7|
2,2,3.3|
];
constraint_x15_x2=[
0,0,1.9|
0,1,0.084|
0,2,9.4|
1,0,5.5|
1,1,4.1|
1,2,3.7|
2,0,3.3|
2,1,0.34|
2,2,3.6|
];
constraint_x15_x7=[
0,0,9.2|
0,1,9.4|
0,2,7.1|
1,0,2.8|
1,1,1.2|
1,2,7.4|
2,0,6.9|
2,1,4.3|
2,2,7.6|
];
constraint_x15_x9=[
0,0,5.7|
0,1,9|
0,2,5.4|
1,0,7.6|
1,1,1.1|
1,2,4.1|
2,0,2.9|
2,1,0.83|
2,2,6.6|
];
constraint_x15_x10=[
0,0,4.6|
0,1,9.2|
0,2,3.5|
1,0,2|
1,1,9|
1,2,4|
2,0,8.8|
2,1,3.3|
2,2,6.1|
];
constraint_x15_x12=[
0,0,9|
0,1,7.1|
0,2,5.9|
1,0,6|
1,1,7.5|
1,2,8|
2,0,4|
2,1,5.4|
2,2,2.7|
];
constraint_x16_x2=[
0,0,4.4|
0,1,0.72|
0,2,3.7|
1,0,0.85|
1,1,2.2|
1,2,8.1|
2,0,3.7|
2,1,8.8|
2,2,2.4|
];
constraint_x16_x5=[
0,0,2.8|
0,1,5.2|
0,2,7.1|
1,0,6.4|
1,1,9.4|
1,2,8.4|
2,0,2.2|
2,1,7.3|
2,2,9.9|
];
constraint_x16_x6=[
0,0,1.5|
0,1,2.3|
0,2,1.8|
1,0,8.9|
1,1,2.1|
1,2,4.5|
2,0,1.1|
2,1,1|
2,2,8.7|
];
constraint_x16_x7=[
0,0,3.1|
0,1,7.5|
0,2,2.9|
1,0,7.1|
1,1,8.4|
1,2,4.9|
2,0,0.61|
2,1,0.77|
2,2,2.1|
];
constraint_x16_x9=[
0,0,4.3|
0,1,5.5|
0,2,2.4|
1,0,6.6|
1,1,2.2|
1,2,9.9|
2,0,0.72|
2,1,3.5|
2,2,0.57|
];
constraint_x16_x10=[
0,0,8.8|
0,1,0.9|
0,2,2.4|
1,0,0.8|
1,1,0.22|
1,2,3.9|
2,0,2.3|
2,1,0.47|
2,2,2.5|
];
constraint_x16_x13=[
0,0,0.87|
0,1,6.7|
0,2,0.14|
1,0,2.8|
1,1,2.8|
1,2,0.78|
2,0,8.6|
2,1,7.1|
2,2,2.3|
];
constraint_x16_x14=[
0,0,9.4|
0,1,6|
0,2,2.7|
1,0,0.22|
1,1,3.2|
1,2,3.2|
2,0,1.2|
2,1,1.1|
2,2,8.2|
];
constraint_x16_x15=[
0,0,6.7|
0,1,1.8|
0,2,4.8|
1,0,9.3|
1,1,9.2|
1,2,1.4|
2,0,1.1|
2,1,7.1|
2,2,6.5|
];
constraint_x17_x1=[
0,0,1.9|
0,1,3.3|
0,2,8.1|
1,0,6.7|
1,1,3.2|
1,2,5.5|
2,0,5.5|
2,1,9.2|
2,2,5.9|
];
constraint_x17_x2=[
0,0,0.019|
0,1,9.6|
0,2,8.6|
1,0,9.3|
1,1,4.6|
1,2,5.2|
2,0,7.6|
2,1,5.1|
2,2,3.4|
];
constraint_x17_x3=[
0,0,9.6|
0,1,0.83|
0,2,2.3|
1,0,2|
1,1,7.6|
1,2,9.3|
2,0,2.1|
2,1,2.4|
2,2,5.3|
];
constraint_x17_x5=[
0,0,1.2|
0,1,9.3|
0,2,1.5|
1,0,3.8|
1,1,3.6|
1,2,5.3|
2,0,0.87|
2,1,9|
2,2,1.1|
];
constraint_x17_x7=[
0,0,7.9|
0,1,6.7|
0,2,5.5|
1,0,4|
1,1,9.8|
1,2,0.72|
2,0,0.58|
2,1,2.3|
2,2,6|
];
constraint_x17_x8=[
0,0,2.8|
0,1,7.7|
0,2,9.8|
1,0,2.4|
1,1,3.7|
1,2,6.5|
2,0,1.5|
2,1,0.74|
2,2,3.2|
];
constraint_x17_x10=[
0,0,5.4|
0,1,9.9|
0,2,0.48|
1,0,9.5|
1,1,5.9|
1,2,0.1|
2,0,1.3|
2,1,9.6|
2,2,4.1|
];
constraint_x17_x11=[
0,0,2.2|
0,1,2.4|
0,2,6.4|
1,0,1.8|
1,1,0.87|
1,2,1.8|
2,0,7|
2,1,9|
2,2,2.9|
];
constraint_x17_x13=[
0,0,6.9|
0,1,3.9|
0,2,7.2|
1,0,7.7|
1,1,4.2|
1,2,9.9|
2,0,4.1|
2,1,6.4|
2,2,9.3|
];
constraint_x17_x14=[
0,0,6.5|
0,1,4.6|
0,2,6.1|
1,0,3.3|
1,1,3.9|
1,2,2.9|
2,0,8.9|
2,1,9.2|
2,2,1.7|
];
constraint_x18_x1=[
0,0,2.6|
0,1,4.4|
0,2,2.4|
1,0,2.4|
1,1,4.3|
1,2,0.15|
2,0,0.66|
2,1,1.7|
2,2,9.3|
];
constraint_x18_x2=[
0,0,7.5|
0,1,8.7|
0,2,5.6|
1,0,8.2|
1,1,6|
1,2,6.9|
2,0,1.8|
2,1,2.9|
2,2,0.85|
];
constraint_x18_x3=[
0,0,7.4|
0,1,8.1|
0,2,3.2|
1,0,3.1|
1,1,0.91|
1,2,1.2|
2,0,5.9|
2,1,1.5|
2,2,8.6|
];
constraint_x18_x5=[
0,0,1.3|
0,1,7.4|
0,2,4.5|
1,0,9.2|
1,1,6.2|
1,2,3|
2,0,3.7|
2,1,1.9|
2,2,6.1|
];
constraint_x18_x7=[
0,0,1.2|
0,1,3.8|
0,2,7.4|
1,0,9|
1,1,3.6|
1,2,6|
2,0,4.5|
2,1,6.1|
2,2,9|
];
constraint_x18_x8=[
0,0,1.9|
0,1,7.5|
0,2,2.2|
1,0,6|
1,1,2.8|
1,2,9.9|
2,0,5.8|
2,1,10|
2,2,3.2|
];
constraint_x18_x11=[
0,0,7.9|
0,1,4.6|
0,2,7.1|
1,0,5.7|
1,1,6.2|
1,2,9.4|
2,0,0.4|
2,1,4.7|
2,2,0.59|
];
constraint_x18_x13=[
0,0,2.5|
0,1,1.3|
0,2,0.63|
1,0,0.62|
1,1,3.2|
1,2,4.2|
2,0,1.3|
2,1,6.2|
2,2,6.5|
];
constraint_x18_x14=[
0,0,3.2|
0,1,4.3|
0,2,6.8|
1,0,5.1|
1,1,8.5|
1,2,8|
2,0,8.9|
2,1,0.24|
2,2,1.8|
];
constraint_x19_x1=[
0,0,7.7|
0,1,10|
0,2,6|
1,0,0.21|
1,1,1.4|
1,2,4.7|
2,0,0.49|
2,1,9.8|
2,2,6.1|
];
constraint_x19_x3=[
0,0,9.1|
0,1,4.6|
0,2,4.8|
1,0,5.2|
1,1,0.8|
1,2,0.51|
2,0,4.2|
2,1,6.8|
2,2,9.5|
];
constraint_x19_x5=[
0,0,6.1|
0,1,3.1|
0,2,8.8|
1,0,1.9|
1,1,0.97|
1,2,4.5|
2,0,3.5|
2,1,5.4|
2,2,2.1|
];
constraint_x19_x6=[
0,0,8.4|
0,1,8.5|
0,2,3.4|
1,0,2.8|
1,1,9.7|
1,2,6.8|
2,0,0.61|
2,1,4.4|
2,2,5.9|
];
constraint_x19_x7=[
0,0,3|
0,1,1.4|
0,2,2.3|
1,0,9.5|
1,1,6.3|
1,2,0.8|
2,0,8.8|
2,1,9.3|
2,2,0.68|
];
constraint_x19_x8=[
0,0,2.5|
0,1,0.63|
0,2,6.3|
1,0,1.8|
1,1,4.1|
1,2,0.54|
2,0,2.6|
2,1,1.2|
2,2,6.7|
];
constraint_x19_x9=[
0,0,3.6|
0,1,6.9|
0,2,0.48|
1,0,9.3|
1,1,4.7|
1,2,6.5|
2,0,5.7|
2,1,8.2|
2,2,5.5|
];
constraint_x19_x12=[
0,0,8|
0,1,8.8|
0,2,5.2|
1,0,8.9|
1,1,4.9|
1,2,5.8|
2,0,8.1|
2,1,8.3|
2,2,4.5|
];
constraint_x19_x16=[
0,0,2.3|
0,1,4|
0,2,3.1|
1,0,5.2|
1,1,8.4|
1,2,3.6|
2,0,6.7|
2,1,2|
2,2,2.2|
];
constraint_x20_x1=[
0,0,5.1|
0,1,5.3|
0,2,3.8|
1,0,9.5|
1,1,8.3|
1,2,0.9|
2,0,2|
2,1,7.2|
2,2,4.8|
];
constraint_x20_x2=[
0,0,3.6|
0,1,1.1|
0,2,5.7|
1,0,5|
1,1,4.5|
1,2,2.5|
2,0,2.9|
2,1,6.2|
2,2,2.9|
];
constraint_x20_x3=[
0,0,9.8|
0,1,8.5|
0,2,9.7|
1,0,5.5|
1,1,6.5|
1,2,0.4|
2,0,4.3|
2,1,7.6|
2,2,2.1|
];
constraint_x20_x4=[
0,0,8.8|
0,1,4.1|
0,2,7.2|
1,0,3.6|
1,1,2.6|
1,2,9.2|
2,0,8.5|
2,1,1.4|
2,2,4.2|
];
constraint_x20_x5=[
0,0,0.12|
0,1,3.7|
0,2,4.7|
1,0,1.4|
1,1,5.8|
1,2,7|
2,0,2.9|
2,1,8.7|
2,2,7.2|
];
constraint_x20_x6=[
0,0,2.1|
0,1,5.8|
0,2,1.9|
1,0,6.2|
1,1,8.3|
1,2,6|
2,0,9.7|
2,1,8.2|
2,2,9.1|
];
constraint_x20_x7=[
0,0,2.1|
0,1,6.4|
0,2,0.49|
1,0,1.7|
1,1,9.7|
1,2,5.9|
2,0,0.37|
2,1,9.1|
2,2,2.4|
];
constraint_x20_x8=[
0,0,7.9|
0,1,0.86|
0,2,3.9|
1,0,4.3|
1,1,7.4|
1,2,2.5|
2,0,5.7|
2,1,8.1|
2,2,4.1|
];
constraint_x20_x9=[
0,0,8.7|
0,1,7.2|
0,2,4.3|
1,0,0.65|
1,1,6.3|
1,2,7.3|
2,0,0.38|
2,1,7.4|
2,2,3.4|
];
constraint_x20_x11=[
0,0,3.6|
0,1,8.6|
0,2,4.2|
1,0,5.6|
1,1,4.3|
1,2,0.28|
2,0,8.6|
2,1,8.6|
2,2,2.7|
];
constraint_x20_x12=[
0,0,5.1|
0,1,0.19|
0,2,0.35|
1,0,2.9|
1,1,4.9|
1,2,1.7|
2,0,6.4|
2,1,7.1|
2,2,1.9|
];
constraint_x20_x15=[
0,0,2.1|
0,1,2.1|
0,2,0.69|
1,0,9.8|
1,1,9.4|
1,2,8.3|
2,0,3.9|
2,1,9.7|
2,2,0.85|
];
constraint_x20_x17=[
0,0,0.35|
0,1,4.1|
0,2,4.6|
1,0,6.5|
1,1,7.9|
1,2,8.2|
2,0,8.8|
2,1,8.8|
2,2,3|
];
constraint_x20_x18=[
0,0,8.6|
0,1,0.27|
0,2,7.3|
1,0,3.2|
1,1,3.3|
1,2,1.3|
2,0,4|
2,1,4.3|
2,2,0.76|
];
constraint_x20_x19=[
0,0,3.2|
0,1,2.8|
0,2,1.5|
1,0,9.7|
1,1,8.4|
1,2,8.3|
2,0,1.4|
2,1,6.2|
2,2,7.4|
];
constraint_x21_x1=[
0,0,0.6|
0,1,0.5|
0,2,6.5|
1,0,5.5|
1,1,3.2|
1,2,7.5|
2,0,1.2|
2,1,1.1|
2,2,8.4|
];
constraint_x21_x4=[
0,0,4.2|
0,1,7.1|
0,2,6.3|
1,0,8.3|
1,1,6.7|
1,2,7.5|
2,0,9.3|
2,1,1.7|
2,2,7.7|
];
constraint_x21_x7=[
0,0,0.85|
0,1,2.9|
0,2,7.7|
1,0,5.1|
1,1,8.2|
1,2,9.6|
2,0,9.7|
2,1,4.8|
2,2,7.1|
];
constraint_x21_x12=[
0,0,4.8|
0,1,2.4|
0,2,4.3|
1,0,1.5|
1,1,1.7|
1,2,9.5|
2,0,4.2|
2,1,9.1|
2,2,1.3|
];
constraint_x21_x15=[
0,0,7.7|
0,1,8.7|
0,2,2.7|
1,0,8.7|
1,1,2|
1,2,8.6|
2,0,0.31|
2,1,8.4|
2,2,3.7|
];
constraint_x21_x17=[
0,0,8.7|
0,1,4.9|
0,2,4.8|
1,0,0.87|
1,1,7|
1,2,4.5|
2,0,2.9|
2,1,9.7|
2,2,1.8|
];
constraint_x21_x18=[
0,0,9.3|
0,1,4.1|
0,2,1.5|
1,0,9.6|
1,1,3.8|
1,2,0.22|
2,0,5.5|
2,1,3.5|
2,2,9.8|
];
constraint_x21_x19=[
0,0,7.3|
0,1,4.7|
0,2,4.7|
1,0,3.3|
1,1,4.3|
1,2,9.1|
2,0,7|
2,1,9.6|
2,2,7.1|
];
constraint_x22_x3=[
0,0,8.5|
0,1,2.8|
0,2,7.7|
1,0,0.59|
1,1,6.8|
1,2,2.9|
2,0,0.78|
2,1,7.6|
2,2,3.4|
];
constraint_x22_x4=[
0,0,4.4|
0,1,8.6|
0,2,7.5|
1,0,8.7|
1,1,7.3|
1,2,2.9|
2,0,6.7|
2,1,7.9|
2,2,0.25|
];
constraint_x22_x6=[
0,0,1.8|
0,1,9.6|
0,2,0.78|
1,0,4.1|
1,1,6|
1,2,0.11|
2,0,5.3|
2,1,9.8|
2,2,7.9|
];
constraint_x22_x8=[
0,0,6.8|
0,1,4.1|
0,2,6.8|
1,0,5.9|
1,1,0.43|
1,2,0.84|
2,0,5|
2,1,3.9|
2,2,1.4|
];
constraint_x22_x9=[
0,0,7.9|
0,1,4|
0,2,2.5|
1,0,2.2|
1,1,9.1|
1,2,9.7|
2,0,8.2|
2,1,5.6|
2,2,8.4|
];
constraint_x22_x10=[
0,0,7.1|
0,1,3.9|
0,2,4|
1,0,6.3|
1,1,7.1|
1,2,4.8|
2,0,3.3|
2,1,5.4|
2,2,4.9|
];
constraint_x22_x11=[
0,0,4.7|
0,1,2.1|
0,2,4.3|
1,0,1.2|
1,1,4.8|
1,2,5.8|
2,0,4.1|
2,1,5.7|
2,2,9.3|
];
constraint_x22_x12=[
0,0,2.5|
0,1,0.24|
0,2,4.8|
1,0,6.3|
1,1,6.8|
1,2,9.5|
2,0,9.3|
2,1,7.4|
2,2,1.4|
];
constraint_x22_x14=[
0,0,0.82|
0,1,8.4|
0,2,9.2|
1,0,7.3|
1,1,5.6|
1,2,7.5|
2,0,0.3|
2,1,7.5|
2,2,8.9|
];
constraint_x22_x15=[
0,0,2.4|
0,1,0.33|
0,2,3|
1,0,1.9|
1,1,4.4|
1,2,9.5|
2,0,4.2|
2,1,7|
2,2,2.5|
];
constraint_x22_x17=[
0,0,0.87|
0,1,0.047|
0,2,8.3|
1,0,2.7|
1,1,4.4|
1,2,8.6|
2,0,6.8|
2,1,9.8|
2,2,3.4|
];
constraint_x22_x18=[
0,0,10|
0,1,1.2|
0,2,4.8|
1,0,2.2|
1,1,8.6|
1,2,1.9|
2,0,4.9|
2,1,4.3|
2,2,5.5|
];
constraint_x22_x19=[
0,0,0.44|
0,1,8.6|
0,2,5.8|
1,0,2.8|
1,1,9.3|
1,2,6.6|
2,0,8.4|
2,1,3.4|
2,2,8.4|
];
constraint_x22_x20=[
0,0,7.8|
0,1,6|
0,2,8.1|
1,0,3.9|
1,1,6.5|
1,2,0.39|
2,0,5.1|
2,1,7.6|
2,2,5.5|
];
constraint_x23_x1=[
0,0,6.8|
0,1,8.9|
0,2,5.4|
1,0,7.2|
1,1,7.2|
1,2,7.3|
2,0,5.7|
2,1,3.7|
2,2,4.2|
];
constraint_x23_x2=[
0,0,8.8|
0,1,3.5|
0,2,0.16|
1,0,6.9|
1,1,7.3|
1,2,9.5|
2,0,2.4|
2,1,4.4|
2,2,9.8|
];
constraint_x23_x4=[
0,0,7.8|
0,1,3.6|
0,2,8.4|
1,0,1.8|
1,1,0.11|
1,2,8.6|
2,0,5.7|
2,1,4.7|
2,2,7.3|
];
constraint_x23_x5=[
0,0,4|
0,1,8.4|
0,2,4.1|
1,0,7.3|
1,1,9.5|
1,2,0.57|
2,0,3.1|
2,1,6.4|
2,2,7.2|
];
constraint_x23_x8=[
0,0,4.6|
0,1,8.1|
0,2,4.6|
1,0,8.7|
1,1,1.1|
1,2,3.2|
2,0,5.7|
2,1,0.41|
2,2,4|
];
constraint_x23_x13=[
0,0,6.1|
0,1,2.7|
0,2,4.1|
1,0,7.1|
1,1,9.2|
1,2,4.1|
2,0,1.4|
2,1,4|
2,2,2.8|
];
constraint_x23_x14=[
0,0,1.4|
0,1,8.7|
0,2,1.9|
1,0,7|
1,1,3.7|
1,2,2.1|
2,0,0.49|
2,1,6.7|
2,2,6.6|
];
constraint_x23_x15=[
0,0,1.9|
0,1,9.9|
0,2,9.5|
1,0,6|
1,1,0.27|
1,2,4.8|
2,0,3.6|
2,1,2.3|
2,2,4.5|
];
constraint_x23_x16=[
0,0,9.4|
0,1,3.7|
0,2,0.057|
1,0,2.8|
1,1,5.5|
1,2,5.6|
2,0,5.6|
2,1,3.5|
2,2,6.1|
];
constraint_x23_x19=[
0,0,5.2|
0,1,9|
0,2,3|
1,0,9.7|
1,1,4.1|
1,2,1.9|
2,0,5|
2,1,6.4|
2,2,3.3|
];
constraint_x23_x21=[
0,0,2.5|
0,1,8.5|
0,2,9.5|
1,0,1.8|
1,1,7|
1,2,7.6|
2,0,1.5|
2,1,4.8|
2,2,7.7|
];
constraint_x24_x1=[
0,0,0.0031|
0,1,2.2|
0,2,5.7|
1,0,2.4|
1,1,6.4|
1,2,3.2|
2,0,0.18|
2,1,3.6|
2,2,7.8|
];
constraint_x24_x4=[
0,0,9.8|
0,1,9.2|
0,2,2.8|
1,0,5.6|
1,1,3.5|
1,2,3|
2,0,0.19|
2,1,2.8|
2,2,4|
];
constraint_x24_x6=[
0,0,3.8|
0,1,4.5|
0,2,4.1|
1,0,5.2|
1,1,0.56|
1,2,1|
2,0,3.1|
2,1,1.9|
2,2,7.3|
];
constraint_x24_x9=[
0,0,1.2|
0,1,5.6|
0,2,4.6|
1,0,1.5|
1,1,0.71|
1,2,4|
2,0,6.4|
2,1,1.1|
2,2,3.5|
];
constraint_x24_x11=[
0,0,4.9|
0,1,6.4|
0,2,0.34|
1,0,6.1|
1,1,3|
1,2,1.2|
2,0,4.5|
2,1,2.4|
2,2,6.3|
];
constraint_x24_x14=[
0,0,8.8|
0,1,5.1|
0,2,9.4|
1,0,5.1|
1,1,3.1|
1,2,2.4|
2,0,3.4|
2,1,9.8|
2,2,5.3|
];
constraint_x24_x19=[
0,0,7.6|
0,1,1.8|
0,2,8.6|
1,0,3.7|
1,1,7.3|
1,2,1|
2,0,8.9|
2,1,2.9|
2,2,1.2|
];
constraint_x24_x20=[
0,0,9.5|
0,1,2.8|
0,2,0.39|
1,0,5.4|
1,1,1.1|
1,2,3.8|
2,0,2.2|
2,1,6.6|
2,2,0.74|
];
constraint_x24_x21=[
0,0,7.3|
0,1,5.4|
0,2,8.6|
1,0,3.8|
1,1,7.9|
1,2,1.2|
2,0,3.3|
2,1,7.3|
2,2,5.9|
];
constraint_x25_x1=[
0,0,0.9|
0,1,8.1|
0,2,3.3|
1,0,2.3|
1,1,0.27|
1,2,9.1|
2,0,6.4|
2,1,8.3|
2,2,5|
];
constraint_x25_x5=[
0,0,5.6|
0,1,8.6|
0,2,6.9|
1,0,0.56|
1,1,1.2|
1,2,3.6|
2,0,1.8|
2,1,3.2|
2,2,4.1|
];
constraint_x25_x7=[
0,0,6.5|
0,1,2|
0,2,9.1|
1,0,8.9|
1,1,0.2|
1,2,1.5|
2,0,3.6|
2,1,1.4|
2,2,8.9|
];
constraint_x25_x8=[
0,0,8.7|
0,1,2.7|
0,2,3|
1,0,1.2|
1,1,0.8|
1,2,1.5|
2,0,5.2|
2,1,1.6|
2,2,9|
];
constraint_x25_x10=[
0,0,4.4|
0,1,6.5|
0,2,3.7|
1,0,7|
1,1,3|
1,2,7.1|
2,0,2.2|
2,1,2.8|
2,2,8.6|
];
constraint_x25_x12=[
0,0,3.6|
0,1,4.9|
0,2,0.29|
1,0,3.1|
1,1,4.8|
1,2,2.3|
2,0,8.5|
2,1,0.78|
2,2,7.5|
];
constraint_x25_x14=[
0,0,4.2|
0,1,10|
0,2,7.5|
1,0,7.1|
1,1,0.11|
1,2,5.4|
2,0,7.4|
2,1,9|
2,2,9.6|
];
constraint_x25_x18=[
0,0,4.5|
0,1,5.9|
0,2,2.1|
1,0,8.4|
1,1,8.9|
1,2,4|
2,0,4.3|
2,1,6.9|
2,2,8.9|
];
constraint_x25_x21=[
0,0,9.2|
0,1,3.6|
0,2,5.9|
1,0,8.4|
1,1,6.8|
1,2,8.1|
2,0,6.5|
2,1,4.6|
2,2,4|
];
constraint_x25_x23=[
0,0,1.6|
0,1,8.3|
0,2,7.4|
1,0,3.7|
1,1,8.8|
1,2,8.7|
2,0,3.2|
2,1,1.8|
2,2,4.9|
];
constraint_x26_x2=[
0,0,0.82|
0,1,7.7|
0,2,5.3|
1,0,6.7|
1,1,7.3|
1,2,2.9|
2,0,8.3|
2,1,9.4|
2,2,7.2|
];
constraint_x26_x5=[
0,0,5.5|
0,1,1.3|
0,2,0.51|
1,0,5.8|
1,1,6.9|
1,2,3.8|
2,0,1.6|
2,1,8.6|
2,2,4.2|
];
constraint_x26_x10=[
0,0,4.7|
0,1,4.7|
0,2,2.5|
1,0,3.2|
1,1,8.9|
1,2,6.2|
2,0,8.3|
2,1,6.5|
2,2,1.8|
];
constraint_x26_x14=[
0,0,5.9|
0,1,2.3|
0,2,8|
1,0,0.38|
1,1,6|
1,2,7.5|
2,0,2.9|
2,1,5.3|
2,2,5.1|
];
constraint_x26_x15=[
0,0,6.5|
0,1,4.3|
0,2,3.6|
1,0,7.3|
1,1,3.3|
1,2,0.43|
2,0,9.9|
2,1,1.4|
2,2,10|
];
constraint_x26_x16=[
0,0,6|
0,1,4.6|
0,2,5|
1,0,5.3|
1,1,5.6|
1,2,1.5|
2,0,9.1|
2,1,7|
2,2,7.6|
];
constraint_x26_x17=[
0,0,6.8|
0,1,9.8|
0,2,8.9|
1,0,5.6|
1,1,10|
1,2,9.5|
2,0,1.3|
2,1,5.4|
2,2,7.3|
];
constraint_x26_x18=[
0,0,2|
0,1,6.1|
0,2,9.5|
1,0,5.1|
1,1,7.1|
1,2,6.2|
2,0,2.1|
2,1,7.5|
2,2,6.2|
];
constraint_x26_x19=[
0,0,5|
0,1,6.3|
0,2,0.63|
1,0,5.5|
1,1,3.9|
1,2,3.8|
2,0,3.6|
2,1,8.3|
2,2,6.9|
];
constraint_x26_x20=[
0,0,5.9|
0,1,8.4|
0,2,0.36|
1,0,8.9|
1,1,4.5|
1,2,7.9|
2,0,5|
2,1,8.7|
2,2,6.6|
];
constraint_x26_x21=[
0,0,6.4|
0,1,7.5|
0,2,8|
1,0,4.9|
1,1,2|
1,2,5.6|
2,0,4.2|
2,1,4.9|
2,2,1.7|
];
constraint_x26_x24=[
0,0,1|
0,1,7.7|
0,2,8.6|
1,0,4.8|
1,1,0.47|
1,2,9.8|
2,0,5.2|
2,1,0.96|
2,2,0.3|
];
constraint_x27_x1=[
0,0,6.8|
0,1,9.1|
0,2,8.1|
1,0,4.2|
1,1,5.5|
1,2,8.5|
2,0,1.6|
2,1,0.49|
2,2,1.9|
];
constraint_x27_x2=[
0,0,0.28|
0,1,5.7|
0,2,8.7|
1,0,0.35|
1,1,2.5|
1,2,6.4|
2,0,9.4|
2,1,0.66|
2,2,8.1|
];
constraint_x27_x3=[
0,0,4.8|
0,1,4.6|
0,2,4.7|
1,0,3.2|
1,1,0.28|
1,2,6.2|
2,0,8.8|
2,1,4.8|
2,2,3|
];
constraint_x27_x5=[
0,0,5.4|
0,1,3.5|
0,2,8.3|
1,0,7.4|
1,1,9.7|
1,2,6.5|
2,0,7.1|
2,1,1.1|
2,2,9|
];
constraint_x27_x6=[
0,0,4.2|
0,1,9.8|
0,2,6|
1,0,7.2|
1,1,2.7|
1,2,7.3|
2,0,7.7|
2,1,8|
2,2,7|
];
constraint_x27_x9=[
0,0,6.6|
0,1,6.6|
0,2,9|
1,0,1.7|
1,1,7.3|
1,2,4.3|
2,0,8.4|
2,1,7.9|
2,2,0.35|
];
constraint_x27_x10=[
0,0,9.5|
0,1,2.8|
0,2,1.4|
1,0,2.4|
1,1,5.1|
1,2,7.6|
2,0,9.3|
2,1,9|
2,2,8.5|
];
constraint_x27_x13=[
0,0,7.9|
0,1,7|
0,2,7.4|
1,0,6.1|
1,1,7.3|
1,2,3.2|
2,0,9.3|
2,1,2.5|
2,2,8|
];
constraint_x27_x15=[
0,0,1.8|
0,1,9.6|
0,2,9.3|
1,0,8.7|
1,1,2.6|
1,2,8.7|
2,0,1|
2,1,9.6|
2,2,8.6|
];
constraint_x27_x17=[
0,0,1.4|
0,1,8.9|
0,2,7.6|
1,0,1.6|
1,1,5|
1,2,6.7|
2,0,3.9|
2,1,5.6|
2,2,0.67|
];
constraint_x27_x19=[
0,0,6.7|
0,1,6.9|
0,2,4.1|
1,0,0.44|
1,1,1.9|
1,2,5.8|
2,0,9.9|
2,1,8.4|
2,2,5.4|
];
constraint_x27_x23=[
0,0,4.4|
0,1,7.2|
0,2,0.37|
1,0,3|
1,1,4.8|
1,2,2.4|
2,0,0.56|
2,1,4.4|
2,2,3.7|
];
constraint_x27_x24=[
0,0,9.4|
0,1,5.3|
0,2,4.2|
1,0,4.2|
1,1,8.7|
1,2,9|
2,0,9.4|
2,1,7.4|
2,2,0.37|
];
constraint_x27_x26=[
0,0,1.4|
0,1,7.5|
0,2,2.9|
1,0,4.8|
1,1,2|
1,2,0.25|
2,0,2.4|
2,1,1.8|
2,2,9.8|
];
constraint_x28_x1=[
0,0,4.6|
0,1,6.1|
0,2,9|
1,0,1.6|
1,1,0.016|
1,2,6.2|
2,0,0.067|
2,1,8.2|
2,2,6.2|
];
constraint_x28_x4=[
0,0,2.4|
0,1,8|
0,2,1.1|
1,0,8|
1,1,0.1|
1,2,1.4|
2,0,7.7|
2,1,0.5|
2,2,2.2|
];
constraint_x28_x5=[
0,0,7|
0,1,2.3|
0,2,9.6|
1,0,2.6|
1,1,2.7|
1,2,4|
2,0,7.6|
2,1,4.4|
2,2,8.2|
];
constraint_x28_x6=[
0,0,3|
0,1,6.9|
0,2,5.7|
1,0,5.7|
1,1,2.4|
1,2,3.5|
2,0,7.4|
2,1,3.6|
2,2,5.1|
];
constraint_x28_x7=[
0,0,9.5|
0,1,1.1|
0,2,7.1|
1,0,0.93|
1,1,3.9|
1,2,3.5|
2,0,1.5|
2,1,0.011|
2,2,1.6|
];
constraint_x28_x8=[
0,0,8.1|
0,1,7.7|
0,2,6.5|
1,0,4.3|
1,1,8.5|
1,2,4.7|
2,0,5.2|
2,1,8.7|
2,2,5.8|
];
constraint_x28_x11=[
0,0,1.3|
0,1,4.8|
0,2,4.7|
1,0,9.9|
1,1,8.5|
1,2,4.6|
2,0,8.6|
2,1,0.19|
2,2,7.6|
];
constraint_x28_x12=[
0,0,5.6|
0,1,8|
0,2,8.6|
1,0,5|
1,1,7|
1,2,3.3|
2,0,2.8|
2,1,6.1|
2,2,4.5|
];
constraint_x28_x15=[
0,0,8.5|
0,1,1.5|
0,2,5|
1,0,5.3|
1,1,9.8|
1,2,6.3|
2,0,3.3|
2,1,5.3|
2,2,7|
];
constraint_x28_x18=[
0,0,6.2|
0,1,9.3|
0,2,1.8|
1,0,1.3|
1,1,9.1|
1,2,0.47|
2,0,1.3|
2,1,8.1|
2,2,1.1|
];
constraint_x28_x20=[
0,0,2.6|
0,1,2.2|
0,2,1.6|
1,0,0.41|
1,1,6.4|
1,2,2.3|
2,0,2.9|
2,1,2.5|
2,2,8.3|
];
constraint_x28_x22=[
0,0,2.6|
0,1,9.8|
0,2,0.23|
1,0,7.8|
1,1,0.093|
1,2,3|
2,0,3|
2,1,6.2|
2,2,2.7|
];
constraint_x28_x23=[
0,0,0.28|
0,1,7.7|
0,2,1.3|
1,0,5.1|
1,1,0.76|
1,2,4.1|
2,0,7.9|
2,1,2.5|
2,2,2.9|
];
constraint_x28_x25=[
0,0,5.5|
0,1,4.5|
0,2,6.8|
1,0,0.13|
1,1,4.5|
1,2,6|
2,0,8.1|
2,1,9.6|
2,2,6.3|
];
constraint_x28_x27=[
0,0,4.8|
0,1,7.4|
0,2,5.9|
1,0,4.8|
1,1,8|
1,2,5|
2,0,2.6|
2,1,9.9|
2,2,2.3|
];
constraint_x29_x1=[
0,0,8.7|
0,1,7.4|
0,2,2.9|
1,0,5.8|
1,1,6.5|
1,2,8.5|
2,0,8.6|
2,1,1.1|
2,2,1|
];
constraint_x29_x5=[
0,0,1.8|
0,1,3.4|
0,2,9.1|
1,0,0.66|
1,1,4.9|
1,2,0.55|
2,0,1.5|
2,1,6.6|
2,2,6.6|
];
constraint_x29_x7=[
0,0,3.4|
0,1,3.9|
0,2,9.5|
1,0,6.3|
1,1,8.3|
1,2,1.9|
2,0,1.5|
2,1,8.5|
2,2,7.8|
];
constraint_x29_x9=[
0,0,2.6|
0,1,4.5|
0,2,3.8|
1,0,5.1|
1,1,2.8|
1,2,1.4|
2,0,5.9|
2,1,1.7|
2,2,10|
];
constraint_x29_x10=[
0,0,8.9|
0,1,0.56|
0,2,4.7|
1,0,7.9|
1,1,1.7|
1,2,8.4|
2,0,2.7|
2,1,6.6|
2,2,4.2|
];
constraint_x29_x16=[
0,0,7.5|
0,1,8.2|
0,2,7.5|
1,0,3.7|
1,1,2.9|
1,2,0.18|
2,0,7.1|
2,1,0.43|
2,2,6.3|
];
constraint_x29_x17=[
0,0,8.6|
0,1,1.8|
0,2,5|
1,0,9.4|
1,1,0.47|
1,2,6.5|
2,0,8.3|
2,1,3.3|
2,2,7|
];
constraint_x29_x21=[
0,0,2.3|
0,1,4.2|
0,2,4.9|
1,0,2.5|
1,1,2.3|
1,2,7.3|
2,0,4|
2,1,3.9|
2,2,4.4|
];
constraint_x29_x23=[
0,0,7.7|
0,1,9.2|
0,2,3.3|
1,0,0.21|
1,1,8.8|
1,2,5|
2,0,4.9|
2,1,0.64|
2,2,3.6|
];
constraint_x29_x25=[
0,0,5.3|
0,1,8.4|
0,2,4.2|
1,0,1.8|
1,1,6.1|
1,2,7.7|
2,0,2.8|
2,1,0.37|
2,2,6.3|
];
constraint_x29_x28=[
0,0,6.3|
0,1,3.4|
0,2,8|
1,0,0.34|
1,1,2.1|
1,2,6.9|
2,0,4.4|
2,1,1.4|
2,2,5.8|
];
constraint_x30_x2=[
0,0,1.5|
0,1,7.9|
0,2,5.9|
1,0,3.9|
1,1,3.6|
1,2,9.4|
2,0,9.9|
2,1,6.7|
2,2,9.4|
];
constraint_x30_x9=[
0,0,8|
0,1,1.3|
0,2,7.4|
1,0,3.9|
1,1,7.8|
1,2,4.9|
2,0,3.2|
2,1,0.81|
2,2,6|
];
constraint_x30_x11=[
0,0,4.5|
0,1,6.2|
0,2,4.4|
1,0,9.6|
1,1,0.54|
1,2,6|
2,0,5|
2,1,5.6|
2,2,2.5|
];
constraint_x30_x12=[
0,0,6.6|
0,1,7.5|
0,2,1|
1,0,7.4|
1,1,1.8|
1,2,2.9|
2,0,2.2|
2,1,2.5|
2,2,2.9|
];
constraint_x30_x15=[
0,0,8.6|
0,1,4.5|
0,2,5.7|
1,0,1.8|
1,1,2.4|
1,2,3.2|
2,0,2|
2,1,3.6|
2,2,8.6|
];
constraint_x30_x17=[
0,0,6.2|
0,1,5.8|
0,2,5.3|
1,0,8.4|
1,1,2.1|
1,2,2.1|
2,0,0.2|
2,1,1.8|
2,2,8.7|
];
constraint_x30_x19=[
0,0,6.7|
0,1,5.5|
0,2,8.4|
1,0,2.8|
1,1,6.5|
1,2,5.8|
2,0,9.7|
2,1,3.3|
2,2,3.8|
];
constraint_x30_x20=[
0,0,4.5|
0,1,8|
0,2,5.8|
1,0,7.2|
1,1,5.4|
1,2,7.8|
2,0,5|
2,1,3.5|
2,2,4.1|
];
constraint_x30_x21=[
0,0,3.3|
0,1,3.8|
0,2,9.9|
1,0,4.2|
1,1,1.5|
1,2,5|
2,0,7.8|
2,1,3.7|
2,2,0.37|
];
constraint_x30_x23=[
0,0,7.8|
0,1,2.1|
0,2,8.5|
1,0,9.1|
1,1,9.2|
1,2,8.9|
2,0,4.9|
2,1,4|
2,2,8.9|
];
constraint_x30_x24=[
0,0,4.2|
0,1,8.4|
0,2,2.7|
1,0,3.5|
1,1,9.7|
1,2,1.5|
2,0,7.7|
2,1,7.9|
2,2,7.6|
];
constraint_x30_x25=[
0,0,4.3|
0,1,2.3|
0,2,9.1|
1,0,0.81|
1,1,2.8|
1,2,6.6|
2,0,7.9|
2,1,9.9|
2,2,3.3|
];
constraint_x30_x28=[
0,0,9.6|
0,1,1.5|
0,2,3.2|
1,0,4.8|
1,1,8.4|
1,2,0.23|
2,0,1.8|
2,1,9.5|
2,2,2.2|
];
constraint_x1_y1=[
0,0,6.2|
0,1,9.8|
0,2,6.8|
1,0,6.1|
1,1,1.2|
1,2,5.8|
2,0,9.1|
2,1,4.2|
2,2,7.6|
];
constraint_x2_y2=[
0,0,5.4|
0,1,0.54|
0,2,8|
1,0,8.2|
1,1,7.2|
1,2,3.2|
2,0,8.2|
2,1,3.7|
2,2,4.9|
];
constraint_x3_y3=[
0,0,8.5|
0,1,2|
0,2,1.7|
1,0,2.7|
1,1,8.2|
1,2,6.3|
2,0,1.5|
2,1,6.2|
2,2,9.3|
];
constraint_x4_y4=[
0,0,3.9|
0,1,2.5|
0,2,0.84|
1,0,3.3|
1,1,2.3|
1,2,1.3|
2,0,5.7|
2,1,1.7|
2,2,8|
];
constraint_x5_y5=[
0,0,0.18|
0,1,5.2|
0,2,1.4|
1,0,9|
1,1,8.4|
1,2,1.7|
2,0,7|
2,1,9.4|
2,2,1.6|
];
constraint_x6_y6=[
0,0,5.6|
0,1,7.8|
0,2,2|
1,0,7.4|
1,1,0.91|
1,2,0.0053|
2,0,2.8|
2,1,2.5|
2,2,5.7|
];
initial_distribution_y1=[0.37,0.17,0.46];
initial_distribution_y2=[0.15,0.34,0.51];
initial_distribution_y3=[0.56,0.13,0.31];
initial_distribution_y4=[0.32,0.28,0.4];
initial_distribution_y5=[0.4,0.52,0.074];
initial_distribution_y6=[0.26,0.2,0.54];
transition_y1=[
0.2,0.24,0.56|
0.48,0.44,0.075|
0.56,0.29,0.15|
];
transition_y2=[
0.38,0.37,0.25|
0.35,0.47,0.17|
0.11,0.7,0.19|
];
transition_y3=[
0.35,0.43,0.21|
0.18,0.23,0.58|
0.45,0.15,0.4|
];
transition_y4=[
0.18,0.68,0.14|
0.37,0.41,0.22|
0.19,0.25,0.56|
];
transition_y5=[
0.28,0.16,0.56|
0.47,0.36,0.17|
0.67,0.066,0.26|
];
transition_y6=[
0.77,0.21,0.029|
0.078,0.82,0.099|
0.31,0.62,0.064|
];
